# Solution for model qis_1000_800_277
# Objective value = 2.9985282356406287e+02
x[0] 1
x[1] 1
x[2] 1
x[3] 1
x[4] 1
x[5] 1
x[6] 0
x[7] 1
x[8] 1
x[9] -5.6960243685047382e-08
x[10] 0
x[11] 1
x[12] 1
x[13] 1
x[14] 1
x[15] 0
x[16] 1
x[17] 9.9999994445334006e-01
x[18] 1
x[19] 0
x[20] 0
x[21] 0
x[22] 0
x[23] 0
x[24] 0
x[25] 1
x[26] 0
x[27] 1
x[28] 0
x[29] 1
x[30] 1
x[31] 0
x[32] 0
x[33] 0
x[34] 0
x[35] 1.0000000522580319e+00
x[36] 0
x[37] 0
x[38] 1
x[39] 1
x[40] 0
x[41] 1
x[42] 0
x[43] 0
x[44] 1
x[45] 1
x[46] 1
x[47] 0
x[48] 1
x[49] 0
x[50] 0
x[51] 1
x[52] 1
x[53] 1
x[54] 0
x[55] 0
x[56] 0
x[57] 1
x[58] 1
x[59] 1
x[60] 1
x[61] 0
x[62] 0
x[63] 0
x[64] 1
x[65] 0
x[66] 0
x[67] 0
x[68] 1
x[69] 1
x[70] 1
x[71] 1
x[72] 9.9999994483381061e-01
x[73] 1
x[74] 1
x[75] 0
x[76] 1
x[77] 1
x[78] 0
x[79] 0
x[80] 0
x[81] 1
x[82] 0
x[83] 0
x[84] 0
x[85] 1
x[86] 0
x[87] 0
x[88] 1
x[89] 1
x[90] 0
x[91] 1
x[92] 1
x[93] 1
x[94] 1.0000000568666407e+00
x[95] 0
x[96] 1
x[97] 0
x[98] 1
x[99] 1
x[100] 0
x[101] 1
x[102] 0
x[103] -5.6960243492751104e-08
x[104] 1
x[105] 1
x[106] 0
x[107] 0
x[108] 0
x[109] 1
x[110] 1
x[111] 1
x[112] 0
x[113] 0
x[114] 1
x[115] 1
x[116] 0
x[117] 1
x[118] 0
x[119] 1
x[120] 0
x[121] 0
x[122] 0
x[123] -2.5146788499708611e-08
x[124] 0
x[125] 1
x[126] 0
x[127] 1
x[128] 2.3519021307303556e-07
x[129] 0
x[130] 1
x[131] 0
x[132] 0
x[133] 5.83928208119539e-08
x[134] 1
x[135] 0
x[136] 1
x[137] 0
x[138] 1
x[139] 0
x[140] 1
x[141] 1
x[142] 1
x[143] 0
x[144] 1
x[145] 0
x[146] 0
x[147] 1
x[148] 1
x[149] 0
x[150] 1
x[151] 0
x[152] 1
x[153] 0
x[154] 0
x[155] 0
x[156] 0
x[157] 1
x[158] 0
x[159] 1
x[160] 1
x[161] 1
x[162] 0
x[163] 1
x[164] 0
x[165] 0
x[166] 0
x[167] 0
x[168] 1.0000000278255823e+00
x[169] 0
x[170] 1
x[171] 0
x[172] 1
x[173] 1
x[174] 1
x[175] 0
x[176] 0
x[177] 0
x[178] 1
x[179] 0
x[180] 0
x[181] 1
x[182] -6.6453618652428727e-08
x[183] 1.0000000378754423e+00
x[184] 1
x[185] 0
x[186] 1
x[187] 0
x[188] 1
x[189] 0
x[190] 0
x[191] 1
x[192] 1
x[193] 0
x[194] 0
x[195] 1
x[196] 1
x[197] 1
x[198] 0
x[199] 0
x[200] 0
x[201] 1
x[202] 1
x[203] 0
x[204] -2.8480121779435780e-08
x[205] 1
x[206] 0
x[207] 0
x[208] 1
x[209] 1
x[210] 0
x[211] 1
x[212] 1
x[213] 1
x[214] 0
x[215] 1
x[216] 1
x[217] 0
x[218] 1
x[219] 1
x[220] 1
x[221] 1
x[222] 0
x[223] 0
x[224] 1
x[225] 1
x[226] 0
x[227] 1.0000000667347544e+00
x[228] 9.9999988224001435e-01
x[229] 0
x[230] 0
x[231] 0
x[232] 0
x[233] 0
x[234] 1
x[235] 1
x[236] 0
x[237] 0
x[238] 0
x[239] 0
x[240] 0
x[241] 1
x[242] 0
x[243] 9.9999976448002925e-01
x[244] 1
x[245] 1
x[246] 1
x[247] 0
x[248] 1
x[249] 0
x[250] 1
x[251] 1
x[252] 1
x[253] 0
x[254] 1
x[255] 0
x[256] 1
x[257] 0
x[258] 1
x[259] 0
x[260] 1
x[261] 0
x[262] 1
x[263] 1
x[264] 0
x[265] 1
x[266] 0
x[267] 1
x[268] 0
x[269] 1
x[270] 1
x[271] 1
x[272] 0
x[273] 1
x[274] 0
x[275] 1
x[276] 1
x[277] 1
x[278] -5.8879993547478193e-08
x[279] 0
x[280] 1
x[281] 0
x[282] 1
x[283] 0
x[284] 1
x[285] 1
x[286] 1
x[287] 0
x[288] 0
x[289] 1
x[290] 0
x[291] 1
x[292] 0
x[293] 0
x[294] -6.6830540879081468e-08
x[295] 0
x[296] 1
x[297] 1
x[298] 1
x[299] 0
x[300] 1
x[301] 0
x[302] 1
x[303] 0
x[304] 1
x[305] 0
x[306] 0
x[307] 0
x[308] 0
x[309] 0
x[310] 1
x[311] 0
x[312] -3.7973495903287358e-08
x[313] 0
x[314] 1
x[315] 9.9999994483381072e-01
x[316] 1
x[317] 1
x[318] 0
x[319] 1
x[320] -5.3626910159417767e-08
x[321] 0
x[322] 1
x[323] -2.8480121701546829e-08
x[324] 0
x[325] 0
x[326] 0
x[327] 1
x[328] 1
x[329] 0
x[330] 1.0000000667250386e+00
x[331] 0
x[332] 0
x[333] 1
x[334] 1
x[335] 1
x[336] 0
x[337] 0
x[338] 1
x[339] 1
x[340] 0
x[341] 1
x[342] 1
x[343] 1
x[344] 0
x[345] 1
x[346] 1
x[347] -2.9656385541608552e-07
x[348] 1
x[349] 0
x[350] 1
x[351] 1.0000000659715687e+00
x[352] 0
x[353] 1
x[354] 1
x[355] 1
x[356] 0
x[357] 0
x[358] 0
x[359] 0
x[360] 0
x[361] 1
x[362] 0
x[363] 1
x[364] 0
x[365] 0
x[366] 0
x[367] 1
x[368] 0
x[369] 1
x[370] 1
x[371] 0
x[372] 0
x[373] 1
x[374] 0
x[375] 1
x[376] 1
x[377] 1
x[378] 0
x[379] 1
x[380] 0
x[381] 0
x[382] 0
x[383] 0
x[384] 1
x[385] 0
x[386] 0
x[387] 1
x[388] 1
x[389] 1
x[390] 0
x[391] 0
x[392] 0
x[393] 0
x[394] 0
x[395] 5.7949433697460211e-08
x[396] 1.0000002964300612e+00
x[397] 0
x[398] 0
x[399] 1
x[400] 0
x[401] 1
x[402] 1
x[403] 1
x[404] 0
x[405] 0
x[406] 1
x[407] 0
x[408] 1
x[409] 1
x[410] 0
x[411] 0
x[412] 1
x[413] 0
x[414] 0
x[415] 0
x[416] 1
x[417] -5.6960243410841827e-08
x[418] 1
x[419] 0
x[420] 0
x[421] 0
x[422] 0
x[423] 1
x[424] 0
x[425] 1
x[426] 1
x[427] 1
x[428] 1
x[429] 0
x[430] 0
x[431] 1
x[432] 2.8580428729736115e-07
x[433] 0
x[434] 1
x[435] 0
x[436] 1.0000000568014795e+00
x[437] 1
x[438] 1
x[439] 1
x[440] 1
x[441] 0
x[442] 1
x[443] 0
x[444] 0
x[445] 0
x[446] 0
x[447] 0
x[448] 0
x[449] 1
x[450] 1
x[451] 0
x[452] 1
x[453] 1
x[454] 1
x[455] 1
x[456] 0
x[457] 0
x[458] 1
x[459] 0
x[460] -5.69602434445148e-08
x[461] 0
x[462] 0
x[463] 1
x[464] 0
x[465] 1
x[466] 1
x[467] 1
x[468] 0
x[469] 0
x[470] 0
x[471] 0
x[472] 1
x[473] 1
x[474] 0
x[475] 1
x[476] 0
x[477] 0
x[478] 1
x[479] 0
x[480] 0
x[481] 1
x[482] 0
x[483] 1
x[484] 1
x[485] 1
x[486] 1
x[487] 1
x[488] 1
x[489] 0
x[490] 0
x[491] 1
x[492] 0
x[493] 1
x[494] 0
x[495] 1
x[496] 1
x[497] 0
x[498] 0
x[499] 1
x[500] 0
x[501] 0
x[502] 0
x[503] 1
x[504] 0
x[505] 1
x[506] 0
x[507] 0
x[508] 1
x[509] 1
x[510] 1
x[511] 1
x[512] 1
x[513] 0
x[514] 1
x[515] 1
x[516] 1
x[517] 1
x[518] 1
x[519] 1
x[520] 1
x[521] 0
x[522] 1
x[523] 1
x[524] 0
x[525] 0
x[526] 1
x[527] 0
x[528] 0
x[529] 0
x[530] 0
x[531] 1
x[532] 1
x[533] 0
x[534] 0
x[535] 0
x[536] 1
x[537] 1
x[538] 1
x[539] 1
x[540] 1
x[541] 1
x[542] 0
x[543] 1
x[544] 1
x[545] 1
x[546] 0
x[547] 0
x[548] 1
x[549] 0
x[550] 1
x[551] 1.0000000586191520e+00
x[552] 0
x[553] 1
x[554] 1
x[555] 1.00000003787143
x[556] 0
x[557] 1
x[558] 1
x[559] 1
x[560] 0
x[561] 1
x[562] 1
x[563] 1
x[564] 7.0450165347384638e-07
x[565] 0
x[566] 0
x[567] 1
x[568] 1
x[569] 0
x[570] 1
x[571] 0
x[572] 1
x[573] 1
x[574] 0
x[575] 1
x[576] 1
x[577] 0
x[578] 1
x[579] 1
x[580] 1
x[581] 1
x[582] 1
x[583] 0
x[584] 0
x[585] 1
x[586] 0
x[587] 0
x[588] 1
x[589] 1
x[590] 0
x[591] -5.5285818603179538e-08
x[592] 1
x[593] 0
x[594] 0
x[595] 0
x[596] 0
x[597] 1
x[598] 0
x[599] 0
x[600] 1
x[601] 0
x[602] 0
x[603] 1
x[604] 0
x[605] 1
x[606] 0
x[607] 0
x[608] 0
x[609] 0
x[610] 0
x[611] 0
x[612] 1
x[613] 1
x[614] 0
x[615] 0
x[616] 0
x[617] 0
x[618] 1
x[619] 0
x[620] 0
x[621] 1
x[622] 0
x[623] 1
x[624] 0
x[625] 0
x[626] 1
x[627] 0
x[628] 0
x[629] 1
x[630] 0
x[631] 1
x[632] 0
x[633] 0
x[634] 1
x[635] 1
x[636] 1
x[637] 9.9999994740951959e-01
x[638] 0
x[639] 1
x[640] 0
x[641] 1
x[642] 1.0000000378787253e+00
x[643] 1
x[644] 0
x[645] 1
x[646] 0
x[647] 0
x[648] 1
x[649] 1
x[650] 1
x[651] 0
x[652] 1
x[653] 1
x[654] 1
x[655] 1
x[656] 0
x[657] 0
x[658] -7.2613652703083654e-08
x[659] 0
x[660] -7.5946986131452380e-08
x[661] 1
x[662] 1
x[663] 1
x[664] 1
x[665] 1
x[666] 1
x[667] 1.0000000377811038e+00
x[668] 1
x[669] 1
x[670] 1
x[671] 1
x[672] 1
x[673] 0
x[674] 1
x[675] 0
x[676] 1
x[677] 0
x[678] 0
x[679] 1
x[680] 0
x[681] 1
x[682] 0
x[683] 0
x[684] 0
x[685] 1
x[686] 0
x[687] 1
x[688] 0
x[689] 0
x[690] 1
x[691] 1.0000000567614853e+00
x[692] 0
x[693] 1
x[694] 1
x[695] 0
x[696] 0
x[697] 5.8570017073053663e-08
x[698] 0
x[699] 1
x[700] 1
x[701] 1
x[702] 1
x[703] 0
x[704] 0
x[705] 1
x[706] 0
x[707] 0
x[708] -5.6960243410841827e-08
x[709] 1
x[710] 1
x[711] 0
x[712] 1
x[713] 1
x[714] 1
x[715] 1
x[716] 0
x[717] 1
x[718] 0
x[719] 1
x[720] 1
x[721] 0
x[722] 1
x[723] 0
x[724] 0
x[725] 0
x[726] 0
x[727] 0
x[728] 1
x[729] 1
x[730] 0
x[731] 1
x[732] 0
x[733] 0
x[734] 1
x[735] 1
x[736] 0
x[737] 0
x[738] 1
x[739] 0
x[740] 1
x[741] 1
x[742] 0
x[743] 0
x[744] 0
x[745] 0
x[746] 0
x[747] 0
x[748] 0
x[749] 1
x[750] 1
x[751] 3.7000375129073e-07
x[752] 1
x[753] 0
x[754] 1
x[755] 1
x[756] 1
x[757] 1
x[758] 0
x[759] 0
x[760] 1
x[761] 0
x[762] 0
x[763] -5.2590480925684348e-08
x[764] 0
x[765] 0
x[766] 0
x[767] 1
x[768] 0
x[769] 1
x[770] 0
x[771] 0
x[772] 0
x[773] 1
x[774] 1
x[775] 0
x[776] 1
x[777] 1
x[778] 0
x[779] 1
x[780] 1
x[781] 0
x[782] 0
x[783] 1
x[784] 1
x[785] 0
x[786] 0
x[787] -3.4640163097685828e-08
x[788] 0
x[789] 1
x[790] 0
x[791] 1
x[792] -7.5946986131452380e-08
x[793] 5.8233970541290119e-08
x[794] 0
x[795] 1
x[796] 0
x[797] 1.1764933533565146e-07
x[798] 0
x[799] 1
x[800] 0
x[801] 0
x[802] 1
x[803] 0
x[804] 0
x[805] 0
x[806] 1
x[807] 0
x[808] 0
x[809] 0
x[810] 0
x[811] 0
x[812] 0
x[813] 0
x[814] 0
x[815] -5.6960243492751104e-08
x[816] 1
x[817] 1
x[818] 0
x[819] 1
x[820] 1
x[821] 1
x[822] 0
x[823] -3.7973496347376567e-08
x[824] 0
x[825] 1
x[826] 1
x[827] 0
x[828] 1
x[829] 0
x[830] 1
x[831] 1
x[832] 1
x[833] 0
x[834] 1
x[835] 0
x[836] 1
x[837] 1
x[838] 1
x[839] 1
x[840] 0
x[841] 1
x[842] 0
x[843] 0
x[844] 1
x[845] 0
x[846] 1
x[847] 1
x[848] 1
x[849] 0
x[850] 0
x[851] 0
x[852] 0
x[853] 1
x[854] 0
x[855] 1
x[856] 0
x[857] 1
x[858] 1
x[859] 0
x[860] 1
x[861] 0
x[862] 0
x[863] 0
x[864] 1
x[865] 1
x[866] 0
x[867] 0
x[868] 0
x[869] 1
x[870] 1
x[871] 1
x[872] 0
x[873] 0
x[874] 1
x[875] 5.8280241562538367e-08
x[876] 0
x[877] 0
x[878] 9.9999994445334028e-01
x[879] 0
x[880] 5.2088930126059931e-08
x[881] 1.0000000125019790e+00
x[882] 1
x[883] 1
x[884] 0
x[885] 1.0000000758336673e+00
x[886] 1
x[887] 0
x[888] 1
x[889] 1
x[890] 0
x[891] 0
x[892] 1
x[893] 0
x[894] 1
x[895] 0
x[896] 0
x[897] 0
x[898] 0.999999629897188
x[899] 0
x[900] 0
x[901] 0
x[902] 0
x[903] 0
x[904] 0
x[905] 0
x[906] 0
x[907] 1
x[908] 0
x[909] 1
x[910] 1
x[911] 1
x[912] 0
x[913] 9.9999994112000667e-01
x[914] 1
x[915] 0
x[916] 0
x[917] 0
x[918] 1
x[919] 0
x[920] 1
x[921] 0
x[922] 0
x[923] 1
x[924] 1.0000000567658758e+00
x[925] 1
x[926] 0
x[927] 0
x[928] 0
x[929] 1
x[930] 1
x[931] 0
x[932] 0
x[933] 0
x[934] 1
x[935] 1
x[936] 0
x[937] 0
x[938] 1
x[939] 0
x[940] 1
x[941] 0
x[942] 1
x[943] 0
x[944] 0
x[945] 0
x[946] 0
x[947] 1
x[948] 0
x[949] 1
x[950] 0
x[951] 1
x[952] 1
x[953] 0
x[954] 1
x[955] 2.3519371298968179e-07
x[956] 1
x[957] 0
x[958] 0
x[959] 1
x[960] 1
x[961] 0
x[962] 1
x[963] 1
x[964] 0
x[965] 0
x[966] 0
x[967] 1
x[968] 0
x[969] 0
x[970] 0
x[971] 0
x[972] 0
x[973] 1
x[974] 1
x[975] 0
x[976] 1
x[977] 1
x[978] 1.0000000662331496e+00
x[979] 1
x[980] 0
x[981] 0
x[982] 1
x[983] 0
x[984] 0
x[985] 0
x[986] 1
x[987] 0
x[988] 0
x[989] 0
x[990] 0
x[991] 1
x[992] 0
x[993] 0
x[994] 0
x[995] 1
x[996] 1.0000000587723266e+00
x[997] 1
x[998] 0
x[999] 0
